10	5	2	0
0	1	11	8	6	10	1	4	3	7	9	2	5	11	[0 0 0 0 0]	[0 0 0 0 0]	[0 0 0 0 0]	[0 0 0 0 0]	[0 0 0 0 0]	[0 0 0 0 0]	[0 0 0 0 0]	[0 0 0 0 0]	[0 0 0 0 0]	[0 0 0 0 0]	[0]
1	5	2	11	9	[5 1 6 1 8]	[-4 8 6 7 4 0 2 2 2 3 0 -3 12 16 8 2 2 1 1 0 20 15 21 -5 16]
2	5	2	11	4	[4 6 2 2 10]	[-2 -1 2 9 4 -5 -5 5 17 -1 6 0 5 4 1 4 6 0 0 0 7 24 14 26 0]
3	5	2	11	6	[3 10 10 8 10]	[8 9 -2 -2 7 16 28 16 18 8 21 20 8 3 3 19 11 -7 9 17 4 5 -6 26 1]
4	5	2	5	11	[9 0 -1 -3 10 24 -7 3 0 -4 0 0 3 0 10 0 16 21 19 -2 15 -2 3 2 7]	[4 10 4 10 5]
5	5	2	10	11	[-2 2 -1 -5 16 7 3 11 6 0 6 14 0 27 3 1 2 0 2 2 9 -2 1 9 -1]	[7 5 9 1 3]
6	5	2	7	11	[7 7 3 9 0 3 1 1 0 3 5 7 14 24 -7 1 0 3 2 1 4 0 0 0 0]	[3 1 8 1 2]
7	5	2	11	8	[4 7 7 1 10]	[9 10 11 0 -1 2 20 6 0 -3 1 9 20 0 -2 2 3 3 2 2 20 26 -2 11 19]
8	5	2	11	7	[1 1 10 2 4]	[-8 -23 -15 -8 -5 -16 -7 -18 -4 -22 -7 -9 -12 -17 -22 -15 -12 -16 -7 -16 -20 -7 -13 -6 -13]
9	5	1	11	[4 10 1 6 3]
10	5	2	11	5	[6 3 5 3 3]	[-9 -4 -24 -8 -8 -13 -14 -6 -24 -11 -11 -9 -4 -14 -10 -19 -4 -24 -17 -16 -6 -4 -18 -18 -6]
11	1	0
0	1	0	0	0	0	0	0	0	0
1	1	5	4	2	5	3	4	5	5
	2	1	4	2	5	3	4	5	5
	3	6	4	2	5	3	4	5	5
	4	1	4	2	5	3	4	5	5
	5	8	4	2	5	3	4	5	5
2	1	4	1	2	1	4	2	4	4
	2	6	1	2	1	4	2	4	4
	3	2	1	2	1	4	2	4	4
	4	2	1	2	1	4	2	4	4
	5	10	1	2	1	4	2	4	4
3	1	3	4	4	3	2	5	2	1
	2	10	4	4	3	2	5	2	1
	3	10	4	4	3	2	5	2	1
	4	8	4	4	3	2	5	2	1
	5	10	4	4	3	2	5	2	1
4	1	4	3	2	5	4	5	3	3
	2	10	3	2	5	4	5	3	3
	3	4	3	2	5	4	5	3	3
	4	10	3	2	5	4	5	3	3
	5	5	3	2	5	4	5	3	3
5	1	7	4	4	3	2	5	1	3
	2	5	4	4	3	2	5	1	3
	3	9	4	4	3	2	5	1	3
	4	1	4	4	3	2	5	1	3
	5	3	4	4	3	2	5	1	3
6	1	3	2	1	4	2	2	3	2
	2	1	2	1	4	2	2	3	2
	3	8	2	1	4	2	2	3	2
	4	1	2	1	4	2	2	3	2
	5	2	2	1	4	2	2	3	2
7	1	4	4	3	5	4	5	4	5
	2	7	4	3	5	4	5	4	5
	3	7	4	3	5	4	5	4	5
	4	1	4	3	5	4	5	4	5
	5	10	4	3	5	4	5	4	5
8	1	1	3	3	4	1	3	3	4
	2	1	3	3	4	1	3	3	4
	3	10	3	3	4	1	3	3	4
	4	2	3	3	4	1	3	3	4
	5	4	3	3	4	1	3	3	4
9	1	4	5	3	5	2	1	5	3
	2	10	5	3	5	2	1	5	3
	3	1	5	3	5	2	1	5	3
	4	6	5	3	5	2	1	5	3
	5	3	5	3	5	2	1	5	3
10	1	6	2	3	5	5	4	1	1
	2	3	2	3	5	5	4	1	1
	3	5	2	3	5	5	4	1	1
	4	3	2	3	5	5	4	1	1
	5	3	2	3	5	5	4	1	1
11	1	0	0	0	0	0	0	0	0
19	16	23	17	21	31	62
